benchmarks_CP/INST_36x36/45/inst36x36_45_26.dzn
S=6;
start=[|
-1,	-1,	17,	-1,	-1,	16,	21,	14,	-1,	30,	-1,	-1,	-1,	-1,	-1,	1,	-1,	-1,	26,	-1,	6,	-1,	-1,	-1,	-1,	-1,	-1,	-1,	-1,	-1,	8,	-1,	-1,	27,	32,	34|
1,	9,	20,	-1,	-1,	27,	32,	28,	-1,	4,	-1,	3,	33,	-1,	16,	-1,	-1,	-1,	12,	30,	14,	24,	-1,	15,	-1,	-1,	6,	7,	-1,	-1,	-1,	13,	25,	21,	-1,	-1|
-1,	23,	12,	24,	8,	13,	33,	16,	-1,	-1,	22,	-1,	20,	-1,	10,	-1,	-1,	-1,	29,	-1,	-1,	-1,	9,	4,	-1,	-1,	11,	-1,	30,	-1,	-1,	-1,	-1,	-1,	-1,	1|
-1,	33,	22,	5,	-1,	18,	10,	26,	-1,	29,	-1,	-1,	24,	32,	12,	36,	-1,	31,	-1,	8,	2,	-1,	-1,	-1,	-1,	-1,	-1,	-1,	-1,	16,	17,	-1,	-1,	11,	35,	-1|
-1,	35,	30,	-1,	-1,	-1,	-1,	5,	11,	-1,	7,	-1,	6,	13,	-1,	9,	18,	-1,	28,	-1,	1,	-1,	-1,	-1,	-1,	29,	2,	8,	-1,	-1,	-1,	-1,	-1,	14,	-1,	-1|
-1,	6,	-1,	25,	-1,	32,	35,	-1,	-1,	-1,	8,	-1,	-1,	-1,	-1,	23,	21,	30,	-1,	-1,	-1,	-1,	7,	34,	15,	-1,	17,	14,	19,	3,	29,	-1,	9,	31,	-1,	-1|
-1,	-1,	7,	-1,	-1,	-1,	24,	33,	-1,	6,	-1,	-1,	-1,	28,	21,	-1,	4,	-1,	13,	5,	20,	19,	-1,	-1,	2,	-1,	35,	1,	-1,	-1,	-1,	-1,	-1,	-1,	-1,	32|
3,	-1,	34,	-1,	-1,	-1,	-1,	29,	-1,	-1,	36,	-1,	5,	-1,	18,	-1,	31,	-1,	6,	-1,	26,	-1,	33,	-1,	13,	-1,	-1,	16,	20,	-1,	-1,	-1,	35,	28,	-1,	-1|
-1,	29,	9,	-1,	15,	-1,	17,	19,	4,	-1,	-1,	13,	35,	-1,	-1,	16,	-1,	-1,	-1,	-1,	-1,	-1,	-1,	2,	5,	-1,	-1,	33,	28,	7,	1,	27,	22,	-1,	-1,	20|
-1,	5,	16,	-1,	-1,	-1,	-1,	25,	1,	23,	30,	10,	26,	-1,	36,	-1,	-1,	-1,	35,	-1,	22,	-1,	-1,	-1,	-1,	32,	9,	-1,	8,	21,	14,	-1,	12,	-1,	31,	-1|
-1,	14,	-1,	-1,	-1,	-1,	2,	32,	20,	-1,	-1,	27,	7,	-1,	-1,	-1,	-1,	3,	-1,	-1,	-1,	23,	-1,	-1,	-1,	-1,	19,	11,	-1,	-1,	13,	30,	33,	26,	-1,	6|
-1,	-1,	-1,	6,	26,	-1,	-1,	-1,	21,	-1,	-1,	-1,	-1,	14,	2,	-1,	-1,	10,	15,	-1,	17,	-1,	27,	16,	-1,	36,	-1,	-1,	-1,	-1,	-1,	-1,	7,	-1,	-1,	29|
-1,	-1,	-1,	16,	3,	-1,	-1,	30,	-1,	9,	-1,	-1,	-1,	25,	13,	7,	-1,	28,	5,	-1,	-1,	8,	-1,	12,	17,	11,	-1,	-1,	-1,	32,	21,	-1,	19,	6,	10,	4|
23,	27,	-1,	17,	-1,	-1,	13,	21,	-1,	-1,	19,	-1,	-1,	-1,	34,	-1,	12,	-1,	7,	35,	-1,	4,	25,	30,	36,	-1,	1,	-1,	-1,	10,	-1,	18,	-1,	22,	-1,	3|
9,	19,	-1,	-1,	13,	35,	-1,	31,	-1,	36,	14,	8,	-1,	30,	24,	22,	-1,	-1,	-1,	-1,	-1,	34,	-1,	10,	-1,	-1,	16,	3,	-1,	-1,	-1,	25,	23,	-1,	-1,	-1|
-1,	8,	-1,	-1,	-1,	-1,	25,	-1,	33,	-1,	23,	20,	31,	36,	-1,	3,	-1,	5,	18,	-1,	-1,	-1,	-1,	6,	29,	30,	21,	-1,	-1,	-1,	-1,	-1,	26,	-1,	24,	-1|
7,	-1,	24,	-1,	-1,	26,	-1,	22,	28,	12,	6,	5,	23,	1,	19,	-1,	-1,	-1,	-1,	-1,	-1,	29,	-1,	11,	-1,	-1,	27,	-1,	-1,	-1,	-1,	-1,	-1,	20,	-1,	-1|
11,	-1,	18,	-1,	29,	-1,	3,	-1,	35,	10,	26,	24,	-1,	6,	-1,	4,	16,	27,	-1,	22,	-1,	20,	28,	-1,	19,	25,	23,	-1,	2,	-1,	-1,	-1,	30,	-1,	12,	-1|
24,	7,	4,	28,	1,	3,	9,	-1,	-1,	-1,	-1,	15,	-1,	-1,	-1,	-1,	17,	-1,	8,	14,	13,	-1,	31,	-1,	-1,	-1,	-1,	-1,	-1,	-1,	-1,	-1,	32,	-1,	-1,	23|
29,	-1,	8,	-1,	17,	-1,	1,	11,	6,	33,	21,	-1,	-1,	24,	4,	-1,	26,	20,	-1,	-1,	32,	7,	23,	36,	-1,	34,	30,	-1,	-1,	5,	-1,	-1,	-1,	35,	-1,	25|
35,	-1,	-1,	-1,	32,	-1,	-1,	-1,	7,	-1,	10,	-1,	-1,	21,	-1,	25,	1,	-1,	-1,	-1,	11,	17,	3,	-1,	-1,	27,	-1,	-1,	23,	2,	6,	-1,	20,	-1,	34,	-1|
20,	34,	-1,	-1,	-1,	9,	-1,	4,	13,	27,	25,	17,	32,	-1,	22,	2,	23,	-1,	30,	-1,	15,	-1,	-1,	28,	-1,	-1,	-1,	26,	-1,	-1,	-1,	-1,	-1,	-1,	-1,	8|
-1,	-1,	27,	23,	16,	-1,	-1,	-1,	18,	-1,	-1,	36,	19,	-1,	-1,	28,	-1,	12,	34,	-1,	-1,	-1,	-1,	21,	-1,	-1,	-1,	-1,	9,	-1,	-1,	-1,	-1,	13,	22,	-1|
33,	18,	25,	-1,	5,	12,	-1,	-1,	26,	32,	28,	-1,	-1,	-1,	-1,	-1,	9,	-1,	-1,	20,	35,	-1,	22,	24,	-1,	19,	36,	-1,	7,	13,	30,	15,	-1,	17,	2,	11|
-1,	32,	5,	-1,	-1,	-1,	16,	-1,	29,	-1,	-1,	-1,	-1,	-1,	-1,	34,	15,	7,	24,	21,	33,	11,	13,	17,	35,	-1,	3,	2,	27,	20,	-1,	28,	-1,	8,	6,	26|
-1,	-1,	-1,	3,	23,	-1,	27,	-1,	24,	26,	-1,	32,	-1,	-1,	-1,	-1,	-1,	21,	-1,	-1,	34,	-1,	4,	18,	-1,	8,	31,	-1,	16,	-1,	20,	-1,	-1,	2,	-1,	-1|
-1,	20,	-1,	8,	36,	-1,	-1,	10,	2,	-1,	17,	-1,	-1,	33,	-1,	32,	-1,	-1,	-1,	-1,	30,	-1,	-1,	27,	24,	4,	15,	19,	14,	-1,	22,	23,	-1,	-1,	-1,	31|
-1,	16,	2,	-1,	-1,	-1,	-1,	-1,	-1,	-1,	-1,	-1,	-1,	-1,	8,	-1,	6,	-1,	23,	3,	7,	22,	-1,	29,	-1,	-1,	-1,	21,	-1,	-1,	-1,	32,	17,	-1,	-1,	-1|
-1,	-1,	-1,	-1,	-1,	-1,	12,	-1,	-1,	-1,	15,	33,	-1,	-1,	23,	31,	20,	2,	-1,	28,	19,	35,	32,	1,	26,	-1,	25,	-1,	5,	-1,	7,	4,	34,	-1,	-1,	10|
-1,	-1,	-1,	26,	21,	-1,	-1,	-1,	-1,	-1,	3,	-1,	-1,	9,	25,	-1,	-1,	-1,	-1,	-1,	-1,	2,	-1,	-1,	-1,	-1,	28,	32,	-1,	-1,	-1,	-1,	27,	-1,	30,	19|
-1,	2,	3,	11,	33,	-1,	-1,	-1,	-1,	13,	-1,	4,	34,	-1,	20,	-1,	36,	-1,	-1,	-1,	-1,	28,	30,	-1,	9,	21,	-1,	6,	-1,	-1,	-1,	10,	5,	-1,	-1,	-1|
-1,	-1,	-1,	-1,	-1,	-1,	20,	-1,	25,	-1,	-1,	-1,	-1,	-1,	-1,	-1,	-1,	24,	27,	-1,	-1,	-1,	6,	32,	-1,	10,	7,	-1,	-1,	35,	-1,	-1,	16,	23,	1,	18|
-1,	24,	-1,	27,	-1,	-1,	26,	-1,	3,	-1,	-1,	-1,	25,	31,	-1,	-1,	-1,	29,	-1,	10,	-1,	-1,	34,	-1,	-1,	1,	18,	-1,	-1,	-1,	4,	-1,	-1,	-1,	-1,	-1|
-1,	12,	-1,	-1,	-1,	-1,	-1,	27,	10,	-1,	18,	-1,	4,	-1,	-1,	-1,	-1,	15,	-1,	13,	-1,	5,	-1,	-1,	33,	28,	34,	30,	36,	-1,	2,	-1,	-1,	-1,	-1,	24|
-1,	-1,	-1,	-1,	-1,	-1,	-1,	9,	-1,	-1,	-1,	-1,	-1,	-1,	-1,	19,	13,	-1,	2,	-1,	-1,	-1,	-1,	-1,	8,	-1,	20,	15,	-1,	-1,	-1,	6,	29,	3,	-1,	-1|
-1,	-1,	6,	-1,	35,	-1,	-1,	12,	34,	17,	29,	-1,	-1,	-1,	-1,	-1,	-1,	-1,	1,	-1,	21,	-1,	16,	20,	25,	-1,	24,	-1,	3,	19,	28,	-1,	-1,	-1,	33,	-1|];
